************************************************************************
file with basedata            : md329_.bas
initial value random generator: 21479304
************************************************************************
projects                      :  1
jobs (incl. supersource/sink ):  22
horizon                       :  160
RESOURCES
  - renewable                 :  2   R
  - nonrenewable              :  2   N
  - doubly constrained        :  0   D
************************************************************************
PROJECT INFORMATION:
pronr.  #jobs rel.date duedate tardcost  MPM-Time
    1     20      0       25        8       25
************************************************************************
PRECEDENCE RELATIONS:
jobnr.    #modes  #successors   successors
   1        1          3           2   3   4
   2        3          3           8  12  16
   3        3          3           5   9  12
   4        3          3           6  13  21
   5        3          3           7  11  16
   6        3          2           7   8
   7        3          3          10  14  17
   8        3          1          17
   9        3          3          10  15  17
  10        3          1          18
  11        3          2          15  19
  12        3          2          14  21
  13        3          2          14  16
  14        3          1          15
  15        3          1          18
  16        3          1          19
  17        3          2          18  19
  18        3          1          20
  19        3          1          22
  20        3          1          22
  21        3          1          22
  22        1          0        
************************************************************************
REQUESTS/DURATIONS:
jobnr. mode duration  R 1  R 2  N 1  N 2
------------------------------------------------------------------------
  1      1     0       0    0    0    0
  2      1     1       0    1    2    0
         2     7       9    0    0    3
         3     9       4    0    0    3
  3      1     2       0    6    9    0
         2     3       0    5    0    6
         3     9       0    3    8    0
  4      1     5       8    0    3    0
         2     7       7    0    0    9
         3     7       0    3    0   10
  5      1     2      10    0    0    7
         2     8      10    0    0    5
         3     9       0    3    1    0
  6      1     4       3    0    0    6
         2     5       2    0    2    0
         3     9       2    0    0    2
  7      1     2       0    5    8    0
         2     7       0    2    0    3
         3    10       5    0    0    1
  8      1     5       0    7    8    0
         2     7       0    7    5    0
         3     8       0    6    4    0
  9      1     2       0    9    7    0
         2     8       7    0    7    0
         3     8       7    0    0   10
 10      1     3       4    0    0    4
         2     4       0    7    6    0
         3     4       2    0    8    0
 11      1     2       0    8    0    9
         2     6       4    0    9    0
         3    10       0    3    7    0
 12      1     3       0    7    0    9
         2     3       5    0    7    0
         3     4       5    0    3    0
 13      1     4       0    6    6    0
         2     6       0    6    0   10
         3     9       0    5    0   10
 14      1     3       0    6    0    7
         2     8       9    0    0    6
         3     8       8    0    0    7
 15      1     7       5    0    0    8
         2     7       0    8    0    2
         3     8       0    6    7    0
 16      1     4       0    9    3    0
         2     6       0    8    0    5
         3     9       0    7    0    2
 17      1     5       0    2    6    0
         2     5       3    0    0    9
         3     9       0    2    0    8
 18      1     3       0    4    5    0
         2     7       5    0    5    0
         3    10       5    0    0    3
 19      1     1       6    0    0    4
         2     2       6    0    3    0
         3     5       6    0    2    0
 20      1     1       6    0    9    0
         2     5       5    0    0    4
         3     7       0    4    9    0
 21      1     1       0    9    3    0
         2     5       5    0    0    5
         3     8       0    3    3    0
 22      1     0       0    0    0    0
************************************************************************
RESOURCEAVAILABILITIES:
  R 1  R 2  N 1  N 2
   13   13   55   64
************************************************************************
MAXIMAL LAGS:
from  to  type  delay
    1   22   ES      0
    1    2   ES      0
    2   22   ES      0
    1    3   ES      0
    3   22   ES      0
    1    4   ES      0
    4   22   ES      0
    1    5   ES      0
    5   22   ES      0
    1    6   ES      0
    6   22   ES      0
    1    7   ES      0
    7   22   ES      0
    1    8   ES      0
    8   22   ES      0
    1    9   ES      0
    9   22   ES      0
    1   10   ES      0
   10   22   ES      0
    1   11   ES      0
   11   22   ES      0
    1   12   ES      0
   12   22   ES      0
    1   13   ES      0
   13   22   ES      0
    1   14   ES      0
   14   22   ES      0
    1   15   ES      0
   15   22   ES      0
    1   16   ES      0
   16   22   ES      0
    1   17   ES      0
   17   22   ES      0
    1   18   ES      0
   18   22   ES      0
    1   19   ES      0
   19   22   ES      0
    1   20   ES      0
   20   22   ES      0
    1   21   ES      0
   21   22   ES      0
    1   22   ES      0
    2    8   SS      2
    2    8   SE    -11
    2    8   ES     -6
    2    8   EE      0
    2   12   SS     10
    2   12   SE     -4
    2   12   ES     -7
    2   12   EE     -5
    2   16   SS      3
    2   16   SE     11
    2   16   ES     -5
    2   16   EE     -6
    3    5   SS    -10
    3    5   SE     -6
    3    5   ES     -3
    3    5   EE      8
    3    9   SS     -8
    3    9   SE     -3
    3    9   ES    -10
    3    9   EE     -3
    3   12   SS      8
    3   12   SE      2
    3   12   ES     -9
    3   12   EE      4
    4    6   SS      6
    4    6   SE      3
    6    4   SE      0
    4    6   ES      0
    4    6   EE     -7
    4   13   SS    -10
    4   13   SE     12
    4   13   ES      3
    4   13   EE      3
    4   21   SS      7
    4   21   SE      9
    4   21   ES     11
    4   21   EE     11
    5    7   SS     -3
    5    7   SE     11
    5    7   ES     -8
    5    7   EE      8
    5   11   SS      7
    5   11   SE     -7
    5   11   ES     -9
    5   11   EE    -11
    5   16   SS     -9
    5   16   SE      3
    5   16   ES     -8
    5   16   EE      3
    6    7   SS     -4
    6    7   SE      5
    6    7   ES     12
    6    7   EE     -8
    6    8   SS    -10
    6    8   SE     10
    6    8   ES     -2
    6    8   EE    -10
    7   10   SS      3
    7   10   SE     12
    7   10   ES     -2
    7   10   EE    -12
    7   14   SS     11
    7   14   SE      3
    7   14   ES      9
    7   14   EE      6
    7   17   SS      1
    7   17   SE     -5
    7   17   ES    -10
    7   17   EE     -5
    8   17   SS     -8
    8   17   SE     -4
    8   17   ES      9
    8   17   EE    -11
    9   10   SS      9
    9   10   SE     11
    9   10   ES     -4
    9   10   EE      6
    9   15   SS      0
    9   15   SE    -10
    9   15   ES      7
    9   15   EE      1
    9   17   SS     10
    9   17   SE      8
    9   17   ES      8
    9   17   EE     -2
   10   18   SS    -10
   10   18   SE      7
   10   18   ES      0
   10   18   EE      0
   11   15   SS     -7
   11   15   SE      3
   11   15   ES    -10
   11   15   EE     -4
   11   19   SS     -1
   11   19   SE      3
   11   19   ES    -11
   11   19   EE      1
   12   14   SS     -2
   12   14   SE     10
   12   14   ES      5
   12   14   EE     10
   12   21   SS      1
   12   21   SE     12
   12   21   ES      4
   12   21   EE      1
   13   14   SS     -7
   13   14   SE     12
   13   14   ES     -6
   13   14   EE      2
   13   16   SS      4
   13   16   SE     -1
   13   16   ES     10
   13   16   EE     12
   14   15   SS      2
   14   15   SE      2
   14   15   ES     -9
   14   15   EE      9
   15   18   SS      2
   15   18   SE     -9
   15   18   ES     -7
   15   18   EE    -10
   16   19   SS      6
   16   19   SE      6
   16   19   ES      6
   16   19   EE     -6
   17   18   SS     10
   17   18   SE      8
   17   18   ES      7
   17   18   EE    -10
   17   19   SS      3
   17   19   SE      0
   17   19   ES     11
   17   19   EE     11
   18   20   SS      3
   18   20   SE    -12
   18   20   ES      9
   18   20   EE     12
************************************************************************
